141278	74618
141258	76828
141098	77836
140618	82312
140477	83199
140458	83320
140407	85386
140328	86419
140258	88606
139933	89704
139823	90735
139753	92922
139098	93801
138988	94832
138918	97019
138243	97859
138108	99027
137957	99293
137752	100123
137642	101154
137603	103343
137462	104230
136807	105251
136768	107440
135697	110136
130749	110214
130639	111245
130600	113434
129919	114234
126615	116815
126505	117846
126466	120035
125785	120835
124618	124264
122310	124973
